benchmarks/bfuzz0/23050259372469322169550129989293488726.smt2
(set-logic QF_FP)
(declare-const x0 (_ FloatingPoint 11 53))
(declare-const x1 (_ FloatingPoint 11 53))
(declare-const x2 (_ FloatingPoint 11 53))
(declare-const x3 (_ FloatingPoint 11 53))
(assert (fp.eq (fp.mul RNE (fp.add RNE (fp.sub RNE x2 x0) (fp.sub RNE x2 x2)) (fp.add RNE (fp.div RNE x1 x3) (fp.sub RNE x0 x2))) (fp.neg (fp.sub RNE (fp.neg x1) (fp.add RNE x2 x3)))))
(assert (fp.leq (fp.neg (fp.div RNE (fp.neg x3) (fp.add RNE x3 x1))) (fp.sub RNE (fp.add RNE (fp.neg x0) (fp.neg x0)) (fp.mul RNE (fp.neg x1) (fp.neg x2)))))
(check-sat)
