db/data/23050259372469322169550129989293488726.z3.out
sat
-------------------
1613.471369429
